%chk=C:\Users\Antonio\Desktop\QM_calculations\Outputs\peptide_calculations\atsp_c0_backbone.chk
#p b3lyp geom=connectivity def2svp

aa

0 1
 H                 -1.40997888    5.89934259   -1.30944039
 C                 -1.91994621    6.74488221   -0.84823194
 H                 -1.77549092    7.57895954   -1.53547197
 H                 -1.42197940    6.96238554    0.09722167
 C                 -3.41919312    6.55177681   -0.67162976
 O                 -3.88912567    6.89543838    0.41943319
 N                 -4.14147212    6.09216155   -1.72463266
 H                 -3.57143076    5.93697524   -2.54325052
 C                 -5.58584184    5.74737690   -1.80566376
 H                 -6.21360391    6.62285081   -1.64036299
 C                 -5.95901928    4.69342328   -0.66565599
 O                 -5.15077294    3.88207450   -0.28261522
 N                 -7.24533815    4.72587393   -0.28350297
 H                 -7.89052830    5.37405733   -0.71337052
 C                 -7.83648703    3.89807160    0.73322837
 H                 -7.18986106    3.63076947    1.56862206
 C                 -8.14127270    2.47336219    0.25179601
 O                 -9.15635039    1.89366910    0.64885952
 N                 -7.23942227    1.92962334   -0.54316382
 H                 -6.29261791    2.27993007   -0.57316100
 C                 -7.44072468    0.62548226   -1.10459297
 H                 -8.43231601    0.23318483   -0.87918106
 C                 -6.47867843   -0.43836502   -0.56275327
 O                 -5.26506174   -0.36706503   -0.97615035
 O                 -3.89287318   -3.01375284    0.15210612
 C                 -5.14274328   -3.08391084    0.10679805
 C                 -6.14709824   -2.34419452    1.02575246
 C                 -5.48770259   -1.58393072    2.16236261
 N                 -6.95052763   -1.31842392    0.32678590
 C                 -4.75317534   -2.40837389    3.35349256
 C                 -4.27909140   -1.45682072    4.57827840
 C                 -3.35842895   -0.27269066    4.19513481
 C                 -1.92828877   -0.62982942    3.85395844
 C                 -1.14057915   -1.19179142    5.00169168
 C                  0.17464137   -1.66617504    4.56087033
 H                 -4.78252548   -0.86410135    1.73017849
 H                 -6.13121911   -0.99872702    2.83101222
 H                 -7.94499181   -1.33793084    0.51702678
 H                 -3.84021374   -2.88306824    2.97376692
 H                 -5.42025397   -3.19723930    3.72123651
 H                 -5.24784372   -1.14475455    4.98925264
 H                 -3.93234161   -2.07199785    5.41637378
 H                 -3.81905891    0.28312339    3.36818986
 H                 -3.49712429    0.42875073    5.02775523
 H                 -1.35556896    0.28091836    3.63829047
 H                 -1.81709810   -1.31958394    3.00748487
 H                 -1.65910490   -2.01415628    5.50966339
 H                 -0.94887283   -0.37996539    5.71350649
 H                  0.19112372   -2.68137772    4.17150930
 N                 -5.64207513   -3.77134991   -0.85132639
 H                 -6.65173876   -3.78630340   -0.86462972
 C                 -5.05286970   -4.61093339   -1.92711021
 H                 -4.39009350   -5.30812211   -1.41584727
 C                 -4.08093237   -3.89456845   -2.84016960
 O                 -3.25240770   -4.61578711   -3.50536712
 N                 -4.16615245   -2.56674931   -2.94397296
 H                 -4.86676587   -2.18306016   -2.32561093
 C                 -3.22422900   -1.84404440   -3.69969522
 H                 -2.90434072   -2.57939662   -4.43803848
 C                 -2.08607874   -1.38098478   -2.79879838
 O                 -0.95265247   -1.64518443   -3.05492657
 N                 -2.39145357   -0.70776025   -1.62865941
 H                 -3.34323073   -0.67633640   -1.29244977
 C                 -1.44963813    0.05157715   -0.84602559
 H                 -0.87324840    0.71179620   -1.49407410
 C                 -0.45064530   -0.87303983   -0.10315136
 O                  0.74495610   -0.62609920    0.02594106
 N                 -0.93394174   -2.11084336    0.34179160
 H                 -1.92000046   -2.32388973    0.29294914
 C                 -0.10714355   -3.22482391    0.85151253
 H                  0.41913344   -2.73438509    1.66999861
 C                  0.96792199   -3.75207134   -0.18884202
 O                  1.86402095   -4.50026254    0.19562486
 N                  0.99923549   -3.24913285   -1.44144395
 H                  0.19390783   -2.75737842   -1.80177032
 C                  2.09834415   -3.56565013   -2.33977478
 H                  2.69692718   -4.42625597   -2.04198101
 C                  3.17381056   -2.34028990   -2.33650689
 O                  4.39247704   -2.70352505   -2.19416412
 N                  2.72774816   -1.12640341   -2.60883975
 C                  3.59795648    0.12286892   -2.67833404
 C                  4.24077479    0.54196998   -1.29673777
 O                  5.32069525    1.13863412   -1.23904152
 H                  4.40261359    0.04477289   -3.41943062
 H                  1.74225747   -0.97127115   -2.78261900
 C                  5.50808454    0.03046851    1.22739503
 N                  3.49785607    0.35339209   -0.14711894
 O                  6.35203578    0.71419992    1.71111691
 C                  4.07207847    0.48620576    1.23836851
 C                  3.10240851   -0.37439956    2.11193647
 C                  2.67139085   -1.61984947    4.38359122
 C                  1.27874299   -1.01123340    4.69356662
 C                  3.58076293   -0.72241704    3.60638160
 H                  2.60375349   -0.10010496   -0.29083787
 H                  3.10366319   -1.34114453    1.59517853
 H                  2.12568100    0.12228882    2.15642461
 H                  2.62518397   -2.50960549    3.74355269
 H                  3.16206250   -1.75045021    5.35520534
 H                  1.33774539   -0.03091509    5.16053653
 H                  3.79707569    0.18008316    4.19092616
 H                  4.52117263   -1.28640485    3.56055010
 N                  5.76428607   -1.22298066    0.80585708
 H                  4.96968057   -1.70809921    0.41394988
 C                  7.03575009   -1.87244777    0.83412226
 H                  7.37785731   -1.94683424    1.86703536
 C                  8.16110341   -1.28027028   -0.07446296
 O                  9.36651991   -1.50019492    0.12110140
 N                  7.74230893   -0.42370714   -0.91749500
 H                  6.81954981   -0.01552320   -0.95542280
 C                  8.56220701    0.17692861   -2.01200913
 H                  9.44159307   -0.43926108   -2.19525637
 C                  8.94096446    1.63839532   -1.74662791
 O                  9.88045426    2.08830050   -2.38723111
 N                  8.16563475    2.31252760   -0.89312699
 H                  7.30201721    1.83478527   -0.67987555
 C                  8.27974976    3.76497475   -0.56801263
 H                  9.26590628    4.09633006   -0.89410484
 C                  8.21341252    4.06319771    0.92896559
 O                  8.07270059    5.27777206    1.29312836
 N                  8.37163044    3.03207372    1.78123766
 H                  8.43333753    2.09258832    1.41555396
 H                  8.17550645    3.21878235    2.75447166
 H                 -5.80723188    5.29946615   -2.75184691
 H                 -8.75556361    4.36076796    1.02667412
 H                 -7.31768060    0.75528248   -2.15953952
 H                 -6.80656364   -3.07301726    1.44862712
 H                 -5.80142643   -5.24618479   -2.35257305
 H                 -3.77069852   -1.06071582   -4.18205147
 H                 -0.72791214   -3.97610912    1.29323309
 H                 -1.92393726    0.79340604   -0.23805324
 H                  1.77143180   -3.80051698   -3.33117079
 H                  3.03052168    0.95848380   -3.03141433
 H                  3.96435996    1.49741821    1.57115413
 H                  6.83831829   -2.89641511    0.59451483
 H                  7.97737597    0.01180309   -2.89269432
 H                  7.63777214    4.34031472   -1.20184924

 1 2 1.0
 2 3 1.0 4 1.0 5 1.0
 3
 4
 5 6 2.0 7 1.5
 6
 7 8 1.0 9 1.0
 8
 9 10 1.0 11 1.0 123 1.0
 10
 11 12 2.0 13 1.5
 12
 13 14 1.0 15 1.0
 14
 15 16 1.0 17 1.0 124 1.0
 16
 17 18 2.0 19 1.5
 18
 19 20 1.0 21 1.0
 20
 21 22 1.0 23 1.0 125 1.0
 22
 23 24 1.0 29 1.5
 24
 25 26 2.0
 26 27 1.0 50 2.0
 27 28 1.0 29 1.0 126 1.0
 28 30 1.0 36 1.0 37 1.0
 29 38 1.0
 30 31 1.0 39 1.0 40 1.0
 31 32 1.0 41 1.0 42 1.0
 32 33 1.0 43 1.0 44 1.0
 33 34 1.0 45 1.0 46 1.0
 34 35 1.0 47 1.0 48 1.0
 35 49 1.0 92 2.0
 36
 37
 38
 39
 40
 41
 42
 43
 44
 45
 46
 47
 48
 49
 50 51 1.0 52 1.0
 51
 52 53 1.0 54 1.0 127 1.0
 53
 54 55 1.0 56 1.5
 55
 56 57 1.0 58 1.0
 57
 58 59 1.0 60 1.0 128 1.0
 59
 60 61 2.0 62 1.0
 61
 62 63 1.0 64 1.0
 63
 64 65 1.0 66 1.0 130 1.0
 65
 66 67 2.0 68 1.0
 67
 68 69 1.0 70 1.0
 69
 70 71 1.0 72 1.0 129 1.0
 71
 72 73 2.0 74 1.5
 73
 74 75 1.0 76 1.0
 75
 76 77 1.0 78 1.0 131 1.0
 77
 78 79 1.0 80 1.5
 79
 80 81 1.0 85 1.0
 81 82 1.0 84 1.0 132 1.0
 82 83 2.0 87 1.0
 83
 84
 85
 86 88 2.0 89 1.0 102 1.5
 87 89 1.0 94 1.0
 88
 89 90 1.0 133 1.0
 90 93 1.0 95 1.0 96 1.0
 91 92 1.0 93 1.0 97 1.0 98 1.0
 92 99 1.0
 93 100 1.0 101 1.0
 94
 95
 96
 97
 98
 99
 100
 101
 102 103 1.0 104 1.0
 103
 104 105 1.0 106 1.0 134 1.0
 105
 106 107 2.0 108 2.0
 107
 108 109 1.0 110 1.0
 109
 110 111 1.0 112 1.0 135 1.0
 111
 112 113 2.0 114 1.5
 113
 114 115 1.0 116 1.0
 115
 116 117 1.0 118 1.0 136 1.0
 117
 118 119 2.0 120 1.5
 119
 120 121 1.0 122 1.0
 121
 122
 123
 124
 125
 126
 127
 128
 129
 130
 131
 132
 133
 134
 135
 136

