%chk=C:\Users\Antonio\Desktop\QM_calculations\Outputs\peptide_calculations\p53_c2_backbone.chk
# rb3lyp geom=connectivity def2svp

aa

0 1
 C                -11.80464741    5.24822660    1.77996317
 H                -11.26434479    6.16606120    1.54406687
 C                -11.85815432    4.35369588    0.55068147
 O                -12.92964856    4.06737715    0.02160095
 N                -10.73927867    3.78959585    0.09065665
 H                 -9.89188756    4.20773809    0.44888526
 C                -10.42622746    2.67100308   -0.77555281
 H                -11.25104498    1.96212775   -0.71237688
 C                 -9.25932098    1.84424582   -0.25609893
 O                 -8.47510147    2.32054924    0.56219456
 N                 -9.05345124    0.59124996   -0.66966944
 H                 -9.76938604    0.19631505   -1.26359632
 C                 -8.19058704   -0.44159350   -0.13409741
 H                 -7.51632548    0.06798420    0.55381557
 C                 -7.34597734   -1.07720631   -1.22956873
 O                 -7.87242473   -1.64939945   -2.18112409
 N                 -6.04126200   -1.25973946   -1.01868928
 H                 -5.67993564   -1.03870005   -0.10098882
 C                 -5.22435665   -1.96514429   -1.98613502
 H                 -5.84096216   -2.50100904   -2.70764521
 C                 -4.21190749   -2.87096557   -1.30056725
 O                 -3.92440864   -2.87265251   -0.10569444
 N                 -3.54134852   -3.72217059   -2.08088719
 H                 -3.83023253   -3.75884440   -3.04792771
 C                 -2.55587934   -4.70795908   -1.68562502
 H                 -2.85462699   -5.07453058   -0.70401129
 C                 -1.15763114   -4.10645305   -1.68081442
 O                 -0.26920863   -4.64735401   -1.02678380
 N                 -0.90339859   -2.87309326   -2.12529613
 H                 -1.55081303   -2.45989543   -2.78157380
 C                  0.40161639   -2.25194598   -2.02177994
 H                  1.13552743   -3.05372184   -2.10069386
 C                  0.70470462   -1.66740610   -0.65014685
 O                  1.86199886   -1.50479313   -0.27010406
 N                 -0.34569820   -1.30984996    0.09327366
 H                 -1.26436167   -1.54306895   -0.25538180
 C                 -0.23052956   -0.83614313    1.45760780
 H                  0.64814338   -0.19589628    1.53935851
 C                 -0.02959425   -1.93811357    2.48830894
 O                  0.60103406   -1.71580402    3.51892035
 N                 -0.63851702   -3.07142342    2.13313942
 H                 -1.23727337   -2.93908630    1.33079098
 C                 -0.53592879   -4.31518227    2.86806880
 H                 -0.88377127   -4.12931766    3.88526510
 C                  0.85877969   -4.90733836    2.72345513
 O                  1.37300914   -5.25363420    3.78460061
 N                  1.40506669   -4.90294955    1.50500170
 H                  0.93478345   -4.45409038    0.73256113
 C                  2.66491839   -5.53330724    1.16408900
 H                  2.90091969   -6.25115915    1.94960376
 C                  3.79385784   -4.51310101    1.19254252
 O                  4.93804410   -4.85495220    0.90393195
 N                  3.55602748   -3.29050867    1.67279995
 H                  2.56656243   -3.12221825    1.78975961
 C                  4.51467448   -2.20464787    1.64022906
 H                  3.87515258   -1.33191953    1.51028548
 C                  5.39296986   -2.10805680    0.40137390
 O                  6.57375698   -1.78199292    0.49650808
 N                  4.78489063   -2.35527883   -0.76189839
 H                  3.81483723   -2.61758116   -0.65767165
 C                  5.23085211   -1.86314486   -2.04969540
 H                  6.31009404   -1.98374041   -2.14610500
 C                  4.89778667   -0.40031474   -2.30307090
 O                  5.73788378    0.34402379   -2.80382078
 N                  3.75244638    0.08169708   -1.81423376
 H                  3.23981180   -0.52629815   -1.19126754
 C                  3.50866771    1.50994023   -1.79939919
 H                  3.46651542    1.86658156   -2.80733288
 C                  4.60144064    2.26213506   -1.05290943
 O                  4.82898750    1.84497875    0.08001974
 N                  5.30985855    3.23911428   -1.62382993
 C                  5.30868738    3.61953299   -3.02250604
 H                  4.59260226    4.43786792   -3.09376882
 H                  5.01453742    2.82124149   -3.70526504
 C                  6.73616237    4.03192489   -3.36777355
 H                  6.81603898    4.61509881   -4.28506864
 H                  7.36991256    3.15098062   -3.47495694
 C                  7.05056007    4.73872701   -2.05203362
 H                  6.57315625    5.69542715   -2.25883737
 H                  8.07768311    4.84745695   -1.70326517
 C                  6.40901648    3.90009784   -0.95086396
 H                  7.13299604    3.20206846   -0.53014689
 C                  6.01259747    4.78386503    0.22359180
 O                  6.74980911    4.90891028    1.19830462
 N                  4.82176372    5.37994416    0.13120602
 H                  4.24569364    5.13067062   -0.66115894
 C                  4.22043095    6.29144949    1.08398645
 H                  4.95718159    6.67863419    1.78851459
 C                  3.09931870    5.65057890    1.88910442
 O                  2.14055022    5.10642746    1.34659950
 N                  3.29976936    5.65279541    3.20912266
 H                  4.15993394    6.14728335    3.39732426
 C                  2.61653926    4.88285870    4.22840465
 H                  1.82445892    4.35825833    3.69455033
 H                -11.39630165    4.73806266    2.62724510
 H                -12.78617829    5.62617002    1.97657471
 H                -10.28686112    3.04236028   -1.76931890
 H                 -8.77202764   -1.09001102    0.48749870
 H                 -4.74276721   -1.18369385   -2.53595955
 H                 -2.63015307   -5.56034698   -2.32813454
 H                  2.50254859   -5.99973704    0.21488961
 H                 -1.12008073   -0.27287035    1.64819284
 H                 -1.21155831   -4.96139757    2.34765483
 H                  0.45233328   -1.58428782   -2.85638197
 H                  4.99591717   -2.07105327    2.58651557
 H                  4.73279101   -2.43332146   -2.80582633
 H                  3.31930245    4.17196838    4.61005767
 H                  2.13020380    5.50588448    4.94966529
 H                  3.92293482    7.18288402    0.57238039
 H                  2.56895064    1.69796943   -1.32350316

 1 2 1.0 3 1.0 95 1.0 96 1.0
 2
 3 4 2.0 5 1.5
 4
 5 6 1.0 7 1.0
 6
 7 8 1.0 9 1.0 97 1.0
 8
 9 10 2.0 11 1.5
 10
 11 12 1.0 13 1.0
 12
 13 14 1.0 15 1.0 98 1.0
 14
 15 16 2.0 17 1.5
 16
 17 18 1.0 19 1.0
 18
 19 20 1.0 21 1.0 99 1.0
 20
 21 22 2.0 23 1.5
 22
 23 24 1.0 25 1.0
 24
 25 26 1.0 27 1.0 100 1.0
 26
 27 28 2.0 29 1.5
 28
 29 30 1.0 31 1.0
 30
 31 32 1.0 33 1.0 104 1.0
 32
 33 34 2.0 35 1.5
 34
 35 36 1.0 37 1.0
 36
 37 38 1.0 39 1.0 102 1.0
 38
 39 40 2.0 41 1.5
 40
 41 42 1.0 43 1.0
 42
 43 44 1.0 45 1.0 103 1.0
 44
 45 46 2.0 47 1.5
 46
 47 48 1.0 49 1.0
 48
 49 50 1.0 51 1.0 101 1.0
 50
 51 52 2.0 53 1.5
 52
 53 54 1.0 55 1.0
 54
 55 56 1.0 57 1.0 105 1.0
 56
 57 58 2.0 59 1.5
 58
 59 60 1.0 61 1.0
 60
 61 62 1.0 63 1.0 106 1.0
 62
 63 64 2.0 65 1.5
 64
 65 66 1.0 67 1.0
 66
 67 68 1.0 69 1.0 110 1.0
 68
 69 70 2.0 71 1.5
 70
 71 72 1.0 81 1.0
 72 73 1.0 74 1.0 75 1.0
 73
 74
 75 76 1.0 77 1.0 78 1.0
 76
 77
 78 79 1.0 80 1.0 81 1.0
 79
 80
 81 82 1.0 83 1.0
 82
 83 84 2.0 85 1.5
 84
 85 86 1.0 87 1.0
 86
 87 88 1.0 89 1.0 109 1.0
 88
 89 90 2.0 91 1.5
 90
 91 92 1.0 93 1.0
 92
 93 94 1.0 107 1.0 108 1.0
 94
 95
 96
 97
 98
 99
 100
 101
 102
 103
 104
 105
 106
 107
 108
 109
 110

