%chk=C:\Users\Antonio\Desktop\QM_calculations\Outputs\peptide_calculations\p53_c1_backbone.chk
# rb3lyp geom=connectivity def2svp

aa

0 1
 C                 10.76169668   -4.80179647    4.02208550
 H                 11.17866348   -3.87003074    4.40540880
 C                  9.64045809   -4.42918817    3.06181387
 O                  8.89256660   -5.25200922    2.53785650
 N                  9.51980409   -3.13705714    2.74717507
 H                 10.32237167   -2.58097754    3.00229498
 C                  8.44219754   -2.51924282    2.00128224
 H                  7.57552390   -3.01711209    2.43760944
 C                  8.52119461   -2.65638575    0.48687576
 O                  9.59370391   -2.44542217   -0.07508916
 N                  7.46581197   -3.10839891   -0.19322504
 H                  6.64126168   -3.24741568    0.37298118
 C                  7.46856480   -3.69665853   -1.51810152
 H                  8.48731292   -3.61439547   -1.89777293
 C                  6.56524304   -2.90113592   -2.44979421
 O                  6.49643333   -3.11996569   -3.65718694
 N                  5.91815743   -1.84991575   -1.93963067
 H                  5.95063277   -1.68203453   -0.94443140
 C                  5.03151429   -0.91357326   -2.59997928
 H                  5.37353688   -0.81945472   -3.63058328
 C                  5.08570186    0.48490594   -2.00073035
 O                  5.19178955    0.58013377   -0.77981287
 N                  4.95740627    1.53233350   -2.81770360
 H                  5.07996163    1.38914292   -3.81093718
 C                  4.76862790    2.86205585   -2.27399796
 H                  5.33141120    2.95824082   -1.34583001
 C                  3.33533622    3.18547599   -1.87683671
 O                  3.04018993    4.09767820   -1.10770067
 N                  2.34182170    2.46877274   -2.40843325
 H                  2.64921434    1.74411998   -3.04086067
 C                  0.91432267    2.59619455   -2.19986715
 H                  0.71073483    3.60973253   -2.54607969
 C                  0.56577312    2.45050581   -0.72606570
 O                 -0.53010030    2.84424479   -0.33317192
 N                  1.44917344    1.96817313    0.15250221
 H                  2.32736663    1.78231448   -0.30937070
 C                  1.30861859    2.02287591    1.59407828
 H                  0.43660456    1.47678819    1.95433667
 C                  1.16693668    3.42952689    2.15670240
 O                  0.36258351    3.64190860    3.06100071
 N                  1.88485722    4.38527546    1.56162653
 H                  2.13714228    4.13874591    0.61490391
 C                  1.73232779    5.78418901    1.90790723
 H                  1.72590831    5.82500213    2.99634760
 C                  0.42103436    6.33257122    1.36293643
 O                 -0.19688298    7.23481578    1.92515283
 N                 -0.00775099    5.83636351    0.20025521
 H                  0.65539064    5.28470042   -0.32494216
 C                 -1.29916401    6.15245246   -0.37554756
 H                 -1.33945399    7.23762216   -0.47085628
 C                 -2.44905833    5.64185319    0.48211330
 O                 -3.54422983    6.18430226    0.34868978
 N                 -2.18076691    4.61508735    1.29206774
 H                 -1.28537093    4.15464991    1.21203198
 C                 -3.20888764    3.73154835    1.80454427
 H                 -2.63224376    2.83902279    2.05054085
 C                 -4.22771533    3.14737397    0.83548642
 O                 -5.36112948    2.84769729    1.20234980
 N                 -3.95984283    2.93174090   -0.45380806
 H                 -2.99320080    3.00888194   -0.73452633
 C                 -4.87219257    2.43894561   -1.46638960
 H                 -5.84344983    2.36719669   -0.97690437
 C                 -4.56476875    1.00144304   -1.86079121
 O                 -4.66247516    0.64206201   -3.03248620
 N                 -4.26683395    0.20142992   -0.83426922
 H                 -4.26389074    0.68012881    0.05516489
 C                 -3.92815863   -1.20741802   -0.82801473
 H                 -3.40396212   -1.39686056   -1.76462506
 C                 -5.15298808   -2.11095853   -0.82440723
 O                 -6.03870692   -1.82330265   -0.02205712
 N                 -5.23297667   -3.20681246   -1.58241154
 C                 -4.31561698   -3.78878374   -2.54169263
 H                 -3.27907225   -3.57040924   -2.28325897
 H                 -4.53127623   -3.30630551   -3.49449649
 C                 -4.51387998   -5.29829841   -2.64358406
 H                 -4.14612243   -5.67409480   -1.68973247
 H                 -4.04096150   -5.87457603   -3.43934254
 C                 -6.03323448   -5.16629112   -2.69284458
 H                 -6.58644072   -6.07593210   -2.46008395
 H                 -6.30968620   -4.77352643   -3.67119762
 C                 -6.35668138   -4.11979658   -1.62981964
 H                 -7.20296841   -3.54485585   -2.00486452
 C                 -6.86354576   -4.75229981   -0.34149637
 O                 -8.01121109   -5.18760051   -0.27986086
 N                 -6.07445289   -4.85045294    0.73085807
 H                 -5.14269110   -4.46352377    0.68346515
 C                 -6.32499350   -5.41628880    2.04151014
 H                 -6.93198669   -6.31432846    1.92232418
 C                 -7.14327621   -4.41237152    2.84100574
 O                 -7.74009972   -4.75782787    3.85819898
 N                 -7.38207475   -3.18677060    2.36902146
 H                 -7.16212847   -2.96842329    1.40774711
 C                 -7.81800922   -2.02029465    3.10880495
 H                 -7.75884911   -2.27075046    4.16914326
 H                  4.02672853   -1.28140724   -2.60196364
 H                  7.25001184   -4.74147500   -1.44398459
 H                  8.32906411   -1.48330140    2.24402979
 H                 11.49166309   -5.29924389    3.41826819
 H                 10.45978185   -5.44639041    4.82098865
 H                  0.36363113    1.96723807   -2.86773895
 H                  2.57678508    6.31414849    1.51940372
 H                 -1.28239370    5.75202641   -1.36765539
 H                 -3.66637022    4.12088172    2.68999861
 H                 -8.80722094   -1.72754834    2.82479807
 H                 -3.25039986   -1.40793560   -0.02468670
 H                 -5.45313673   -5.67073325    2.60721677
 H                  2.21858763    1.58854426    1.95214607
 H                  5.14942352    3.56332437   -2.98682146
 H                 -4.93061864    3.14963073   -2.26414472
 H                 -7.11486675   -1.22795278    2.95818879

 1 2 1.0 3 1.0 98 1.0 99 1.0
 2
 3 4 2.0 5 1.5
 4
 5 6 1.0 7 1.0
 6
 7 8 1.0 9 1.0 97 1.0
 8
 9 10 2.0 11 1.5
 10
 11 12 1.0 13 1.0
 12
 13 14 1.0 15 1.0 96 1.0
 14
 15 16 2.0 17 1.5
 16
 17 18 1.0 19 1.0
 18
 19 20 1.0 21 1.0 95 1.0
 20
 21 22 2.0 23 1.5
 22
 23 24 1.0 25 1.0
 24
 25 26 1.0 27 1.0 108 1.0
 26
 27 28 2.0 29 1.5
 28
 29 30 1.0 31 1.0
 30
 31 32 1.0 33 1.0 100 1.0
 32
 33 34 2.0 35 1.5
 34
 35 36 1.0 37 1.0
 36
 37 38 1.0 39 1.0 107 1.0
 38
 39 40 2.0 41 1.5
 40
 41 42 1.0 43 1.0
 42
 43 44 1.0 45 1.0 101 1.0
 44
 45 46 2.0 47 1.5
 46
 47 48 1.0 49 1.0
 48
 49 50 1.0 51 1.0 102 1.0
 50
 51 52 2.0 53 1.5
 52
 53 54 1.0 55 1.0
 54
 55 56 1.0 57 1.0 103 1.0
 56
 57 58 2.0 59 1.5
 58
 59 60 1.0 61 1.0
 60
 61 62 1.0 63 1.0 109 1.0
 62
 63 64 2.0 65 1.5
 64
 65 66 1.0 67 1.0
 66
 67 68 1.0 69 1.0 105 1.0
 68
 69 70 2.0 71 1.5
 70
 71 72 1.0 81 1.0
 72 73 1.0 74 1.0 75 1.0
 73
 74
 75 76 1.0 77 1.0 78 1.0
 76
 77
 78 79 1.0 80 1.0 81 1.0
 79
 80
 81 82 1.0 83 1.0
 82
 83 84 2.0 85 1.5
 84
 85 86 1.0 87 1.0
 86
 87 88 1.0 89 1.0 106 1.0
 88
 89 90 2.0 91 1.5
 90
 91 92 1.0 93 1.0
 92
 93 94 1.0 104 1.0 110 1.0
 94
 95
 96
 97
 98
 99
 100
 101
 102
 103
 104
 105
 106
 107
 108
 109
 110

