%chk=C:\Users\Antonio\Desktop\QM_calculations\Outputs\peptide_calculations\p53_c3_backbone.chk
#p b3lyp geom=connectivity def2svp

aa

0 1
 C                 12.23977118    5.29939788   -1.07742823
 H                 12.24980560    4.64387773   -1.94882481
 C                 11.11775058    4.78174747   -0.18958612
 O                 10.25977026    5.52846014    0.27650329
 N                 11.00437827    3.45858755   -0.05327373
 H                 11.61678959    2.84647292   -0.57329135
 C                 10.01035019    2.80285091    0.77151970
 H                  9.64261645    3.53095173    1.49509101
 C                 10.58117940    1.60264644    1.51408072
 O                 11.36282431    0.85329478    0.93392143
 N                 10.12507354    1.35678645    2.74390502
 H                  9.49186480    2.01337770    3.17893261
 C                 10.58206847    0.26995036    3.58669771
 H                 11.58529201   -0.06816762    3.32804716
 C                  9.76441247   -0.99731990    3.38691174
 O                  9.45604564   -1.81483825    4.25159901
 N                  9.13815966   -1.08413233    2.21115304
 H                  9.30681311   -0.22005085    1.71502250
 C                  8.25972051   -2.12664314    1.72271743
 H                  8.66364367   -3.09685007    2.01088040
 C                  8.15160483   -2.17445231    0.20514043
 O                  8.16266146   -1.15241313   -0.47767075
 N                  8.14792350   -3.34525816   -0.43638091
 H                  8.03694011   -4.21372025    0.06674789
 C                  7.88491850   -3.54400840   -1.84732255
 H                  8.37455864   -2.81852261   -2.49727040
 C                  6.40715711   -3.44001393   -2.19710707
 O                  6.04977773   -3.44481354   -3.37296224
 N                  5.50298396   -3.46672066   -1.21576149
 H                  5.69417453   -3.63560645   -0.23863148
 C                  4.07015157   -3.40305181   -1.42061072
 H                  3.92056231   -3.93615098   -2.35905499
 C                  3.50761848   -1.99200831   -1.51927407
 O                  4.12150706   -1.04692434   -1.02942966
 N                  2.52895440   -1.80830640   -2.40844881
 H                  2.26207481   -2.54394374   -3.04583276
 C                  1.98516668   -0.50649711   -2.74010684
 H                  2.28055329    0.22202604   -1.98528891
 C                  0.46566127   -0.57895302   -2.70687864
 O                 -0.19908270    0.45513863   -2.71905915
 N                 -0.15524738   -1.75189294   -2.56032183
 H                  0.42760796   -2.57422995   -2.49710955
 C                 -1.58150224   -2.00565039   -2.52151695
 H                 -2.21735172   -1.52060900   -3.26138088
 C                 -2.23495280   -1.51818431   -1.23563793
 O                 -3.41757749   -1.18707581   -1.24714497
 N                 -1.44163608   -1.32103054   -0.17979775
 H                 -0.47270349   -1.58675601   -0.29131413
 C                 -1.98226838   -0.88081763    1.09004433
 H                 -2.81995950   -1.54216315    1.31189797
 C                 -2.53397355    0.53720593    1.05141461
 O                 -3.28563607    0.98104482    1.91672838
 N                 -2.12558696    1.25429632    0.00281351
 H                 -1.33750598    0.82168802   -0.45812220
 C                 -2.52809236    2.61240732   -0.30285544
 H                 -2.55856049    3.20983768    0.60811438
 C                 -3.93042949    2.71464524   -0.88589973
 O                 -4.66432568    3.69045653   -0.75208578
 N                 -4.21733869    1.59784791   -1.55880712
 H                 -3.43855375    0.95573542   -1.58930045
 C                 -5.35034098    1.44638698   -2.44877114
 H                 -5.60542511    2.49476683   -2.60163103
 C                 -6.51117065    0.76142493   -1.74166000
 O                 -7.60969367    1.18713795   -2.09021143
 N                 -6.25287971   -0.17585875   -0.82636354
 H                 -5.26118503   -0.31650890   -0.70050454
 C                 -7.21158484   -1.14101937   -0.32629946
 H                 -8.23961870   -0.94267653   -0.62942953
 C                 -7.14784264   -1.20789978    1.19279356
 O                 -6.11087939   -0.91229729    1.78325508
 N                 -8.23255297   -1.59987082    1.86341997
 C                 -8.12795019   -1.98251202    3.25695992
 H                 -8.15732519   -1.06221078    3.84103790
 H                 -7.19041072   -2.38443050    3.63954273
 C                 -9.30385469   -2.90908389    3.55639408
 H                 -9.84594603   -2.76854415    4.49106618
 H                 -8.99624083   -3.95352125    3.52461896
 C                -10.29243378   -2.58075841    2.44021110
 H                -11.02667388   -1.88134326    2.83852668
 H                -10.69448551   -3.51883183    2.05654584
 C                 -9.55163352   -1.85426711    1.32071700
 H                 -9.57611559   -2.47770200    0.42704596
 C                -10.34024473   -0.64435523    0.84108145
 O                -11.36473808   -0.70937137    0.16630831
 N                 -9.87529362    0.57660842    1.11697940
 H                 -9.17988746    0.57366471    1.85044781
 C                -10.29370031    1.83832487    0.54149522
 H                -10.62943301    1.75840798   -0.49295689
 C                 -9.07436253    2.74872570    0.52018166
 O                 -8.28508000    2.81213755    1.45939066
 N                 -8.92693158    3.59723212   -0.49969700
 H                 -9.55700864    3.49038890   -1.28167254
 C                 -7.88939624    4.57787331   -0.75146053
 H                 -6.96596024    4.14286275   -0.36896606
 H                 -7.71280788    4.74061311   -1.79416493
 H                 -8.05489605    5.46799365   -0.18120117
 H                -11.10098804    2.22182040    1.12981307
 H                 -1.76934482    3.09547628   -0.88237827
 H                 -5.02045988    0.99908886   -3.36310314
 H                 -6.98258958   -2.10271880   -0.73568379
 H                 -1.21965601   -0.93329158    1.83875590
 H                  2.47256485   -0.21497873   -3.64694764
 H                 -1.74837845   -3.04733484   -2.70025138
 H                  3.54190308   -3.87913381   -0.62111111
 H                  8.30765291   -4.49887291   -2.08062397
 H                  7.29013147   -2.06284330    2.17074298
 H                 10.56429182    0.57458764    4.61226111
 H                  9.19456186    2.57800371    0.11666600
 H                 13.20901123    5.17749537   -0.64083506
 H                 12.05064313    6.26851812   -1.48966209

 1 2 1.0 3 1.0 109 1.0 110 1.0
 2
 3 4 2.0 5 1.5
 4
 5 6 1.0 7 1.0
 6
 7 8 1.0 9 1.0 108 1.0
 8
 9 10 2.0 11 1.5
 10
 11 12 1.0 13 1.0
 12
 13 14 1.0 15 1.0 107 1.0
 14
 15 16 2.0 17 1.5
 16
 17 18 1.0 19 1.0
 18
 19 20 1.0 21 1.0 106 1.0
 20
 21 22 2.0 23 1.5
 22
 23 24 1.0 25 1.0
 24
 25 26 1.0 27 1.0 105 1.0
 26
 27 28 2.0 29 1.5
 28
 29 30 1.0 31 1.0
 30
 31 32 1.0 33 1.0 104 1.0
 32
 33 34 2.0 35 1.5
 34
 35 36 1.0 37 1.0
 36
 37 38 1.0 39 1.0 102 1.0
 38
 39 40 2.0 41 1.5
 40
 41 42 1.0 43 1.0
 42
 43 44 1.0 45 1.0 103 1.0
 44
 45 46 2.0 47 1.5
 46
 47 48 1.0 49 1.0
 48
 49 50 1.0 51 1.0 101 1.0
 50
 51 52 2.0 53 1.5
 52
 53 54 1.0 55 1.0
 54
 55 56 1.0 57 1.0 98 1.0
 56
 57 58 2.0 59 1.5
 58
 59 60 1.0 61 1.0
 60
 61 62 1.0 63 1.0 99 1.0
 62
 63 64 2.0 65 1.5
 64
 65 66 1.0 67 1.0
 66
 67 68 1.0 69 1.0 100 1.0
 68
 69 70 2.0 71 1.5
 70
 71 72 1.0 81 1.0
 72 73 1.0 74 1.0 75 1.0
 73
 74
 75 76 1.0 77 1.0 78 1.0
 76
 77
 78 79 1.0 80 1.0 81 1.0
 79
 80
 81 82 1.0 83 1.0
 82
 83 84 2.0 85 1.5
 84
 85 86 1.0 87 1.0
 86
 87 88 1.0 89 1.0 97 1.0
 88
 89 90 2.0 91 1.5
 90
 91 92 1.0 93 1.0
 92
 93 94 1.0 95 1.0 96 1.0
 94
 95
 96
 97
 98
 99
 100
 101
 102
 103
 104
 105
 106
 107
 108
 109
 110

