%chk=C:\Users\Antonio\Desktop\QM_calculations\Outputs\peptide_calculations\p53_c4_backbone.chk
#p b3lyp geom=connectivity def2svp

aa

0 1
 C                 -6.45991534    4.42966831    4.46425590
 H                 -5.86051473    3.55033868    4.70214820
 C                 -6.14147229    4.91870534    3.05911019
 O                 -5.94292139    6.11313035    2.84476725
 N                 -6.12381561    4.04937220    2.04569091
 H                 -6.23680209    3.06326287    2.23130546
 C                 -6.18026755    4.37691031    0.63555312
 H                 -6.51360746    5.40408973    0.49013891
 C                 -7.09131720    3.45273126   -0.15977029
 O                 -7.37511469    2.30695795    0.18203654
 N                 -7.57105421    3.80402962   -1.35473781
 H                 -7.40912380    4.76275981   -1.62952005
 C                 -8.33724915    2.95622483   -2.24573833
 H                 -8.82238049    2.20437087   -1.62258781
 C                 -7.49154390    2.05273669   -3.13118425
 O                 -7.75698593    1.83839062   -4.31175986
 N                 -6.49516759    1.37741816   -2.55269865
 H                 -6.36537200    1.51297682   -1.56037449
 C                 -5.75786938    0.28033082   -3.14702210
 H                 -6.36293599   -0.18792636   -3.92337826
 C                 -5.41731873   -0.76725266   -2.09697983
 O                 -5.14835729   -0.40345748   -0.95352006
 N                 -5.37289780   -2.05947497   -2.42864650
 H                 -5.72995088   -2.36129424   -3.32350042
 C                 -4.95982475   -3.13290932   -1.54735032
 H                 -5.36969463   -2.94961936   -0.55478153
 C                 -3.45580552   -3.24050995   -1.33955501
 O                 -3.02009459   -3.76409259   -0.31628445
 N                 -2.70456644   -2.66670384   -2.28339182
 H                 -3.09357707   -2.22299301   -3.10263642
 C                 -1.27393258   -2.50154035   -2.12433404
 H                 -0.84125091   -3.49233231   -1.98517862
 C                 -0.70755110   -1.71123724   -0.95439059
 O                  0.45558814   -1.84912235   -0.58132059
 N                 -1.53874863   -0.87719862   -0.32552275
 H                 -2.49862454   -0.86699782   -0.64260394
 C                 -1.30653467   -0.12849366    0.89324391
 H                 -0.27138223    0.21447348    0.91585620
 C                 -1.40483218   -1.12899724    2.03614541
 O                 -0.43186136   -1.43427038    2.72133920
 N                 -2.54405842   -1.82411016    2.03133850
 H                 -3.22582301   -1.52436254    1.34867993
 C                 -2.93120645   -2.88401605    2.94026395
 H                 -2.61597796   -2.47680219    3.90096381
 C                 -2.17525680   -4.20191152    2.85693756
 O                 -2.59227925   -5.15313715    3.51386870
 N                 -1.19520599   -4.30840826    1.95593068
 H                 -1.04177587   -3.43771456    1.46771149
 C                 -0.28420062   -5.37891661    1.60310962
 H                 -0.38630027   -6.17374496    2.34118609
 C                  1.15227864   -4.91100257    1.78214156
 O                  2.11462111   -5.66223091    1.63857832
 N                  1.38981750   -3.63274991    2.08793222
 H                  0.63515852   -2.98147853    2.25042140
 C                  2.72589457   -3.07717679    2.16208188
 H                  2.48660354   -2.01397079    2.17738452
 C                  3.58021830   -3.35736898    0.93476898
 O                  4.77023061   -3.61910272    1.09487096
 N                  3.04867895   -3.37657344   -0.29020230
 H                  2.05855523   -3.17949111   -0.27123228
 C                  3.71262484   -3.58340815   -1.56148073
 H                  4.48641825   -4.34343633   -1.46521936
 C                  4.30180383   -2.24536181   -1.98358232
 O                  5.25615237   -2.26104861   -2.75820106
 N                  3.76941066   -1.08400783   -1.59535051
 H                  3.10678619   -1.12117032   -0.83330257
 C                  4.26876314    0.18956445   -2.07394364
 H                  4.48580139   -0.05045510   -3.11452009
 C                  5.44176037    0.73086553   -1.26929385
 O                  5.47959342    0.38282974   -0.09042906
 N                  6.28812567    1.59981360   -1.82560092
 C                  6.37159798    2.01624605   -3.21034169
 H                  5.59401689    2.72785311   -3.48590187
 H                  6.26421469    1.11869929   -3.81925874
 C                  7.74969085    2.64318516   -3.40161921
 H                  7.66527877    3.73012925   -3.38732079
 H                  8.18940513    2.25308609   -4.31948650
 C                  8.51718884    2.08285421   -2.20656998
 H                  9.42776895    2.64369215   -1.99853368
 H                  8.81708787    1.06135762   -2.44194765
 C                  7.47457715    2.00188026   -1.09601621
 H                  7.76933121    1.23432118   -0.38024638
 C                  7.45142644    3.24086136   -0.21221275
 O                  8.37169775    3.50009033    0.56078306
 N                  6.35631191    3.99990581   -0.29575409
 H                  5.69779972    3.78613934   -1.03074517
 C                  5.99377204    5.05341121    0.63079047
 H                  6.91574730    5.63214522    0.68915084
 C                  5.72412777    4.54561993    2.04062260
 O                  5.79763101    5.34874906    2.96760173
 N                  5.41424273    3.25448887    2.18034878
 H                  5.55251918    2.73415732    1.32636224
 C                  5.18695301    2.51557552    3.40638020
 H                  4.86706343    3.24102892    4.15397256
 H                 -9.02201436    3.58842003   -2.77140555
 H                 -4.83431525    0.60176509   -3.58133535
 H                 -5.41665536   -4.04814826   -1.86126693
 H                 -3.99667185   -2.97064561    2.89358448
 H                 -0.84436204   -2.17475408   -3.04822799
 H                 -1.94698631    0.72836583    0.91590856
 H                 -0.48436000   -5.76888320    0.62701411
 H                  3.20818817   -3.25376541    3.10075621
 H                  2.99065233   -3.94239571   -2.26488943
 H                  3.47535750    0.90748182   -2.07546362
 H                  4.52632566    1.69381243    3.22423435
 H                  6.13541464    2.18220166    3.77268966
 H                  5.14597007    5.61935353    0.30545795
 H                 -7.44552220    4.01574423    4.51058184
 H                 -6.21605448    5.16635816    5.20095128
 H                 -5.17961597    4.20029158    0.30028849

 1 2 1.0 3 1.0 108 1.0 109 1.0
 2
 3 4 2.0 5 1.5
 4
 5 6 1.0 7 1.0
 6
 7 8 1.0 9 1.0 110 1.0
 8
 9 10 2.0 11 1.5
 10
 11 12 1.0 13 1.0
 12
 13 14 1.0 15 1.0 95 1.0
 14
 15 16 2.0 17 1.5
 16
 17 18 1.0 19 1.0
 18
 19 20 1.0 21 1.0 96 1.0
 20
 21 22 2.0 23 1.5
 22
 23 24 1.0 25 1.0
 24
 25 26 1.0 27 1.0 97 1.0
 26
 27 28 2.0 29 1.5
 28
 29 30 1.0 31 1.0
 30
 31 32 1.0 33 1.0 99 1.0
 32
 33 34 2.0 35 1.5
 34
 35 36 1.0 37 1.0
 36
 37 38 1.0 39 1.0 100 1.0
 38
 39 40 2.0 41 1.5
 40
 41 42 1.0 43 1.0
 42
 43 44 1.0 45 1.0 98 1.0
 44
 45 46 2.0 47 1.5
 46
 47 48 1.0 49 1.0
 48
 49 50 1.0 51 1.0 101 1.0
 50
 51 52 2.0 53 1.5
 52
 53 54 1.0 55 1.0
 54
 55 56 1.0 57 1.0 102 1.0
 56
 57 58 2.0 59 1.5
 58
 59 60 1.0 61 1.0
 60
 61 62 1.0 63 1.0 103 1.0
 62
 63 64 2.0 65 1.5
 64
 65 66 1.0 67 1.0
 66
 67 68 1.0 69 1.0 104 1.0
 68
 69 70 2.0 71 1.5
 70
 71 72 1.0 81 1.0
 72 73 1.0 74 1.0 75 1.0
 73
 74
 75 76 1.0 77 1.0 78 1.0
 76
 77
 78 79 1.0 80 1.0 81 1.0
 79
 80
 81 82 1.0 83 1.0
 82
 83 84 2.0 85 1.5
 84
 85 86 1.0 87 1.0
 86
 87 88 1.0 89 1.0 107 1.0
 88
 89 90 2.0 91 1.5
 90
 91 92 1.0 93 1.0
 92
 93 94 1.0 105 1.0 106 1.0
 94
 95
 96
 97
 98
 99
 100
 101
 102
 103
 104
 105
 106
 107
 108
 109
 110

