%chk=C:\Users\Antonio\Desktop\QM_calculations\Outputs\peptide_calculations\pdiq_c0_backbone.chk
#p b3lyp geom=connectivity def2svp

AA

0 1
 C                -10.89607325   -0.00379175    1.99865257
 H                -10.20198897   -0.06811225    2.83711797
 C                -10.14593148    0.93620136    1.06666438
 O                -10.62740213    1.97265212    0.61366298
 N                 -8.89459001    0.64087034    0.70696783
 H                 -8.55178682   -0.20991599    1.12866307
 C                 -8.10817192    1.17993352   -0.38494931
 H                 -8.83856723    1.29844360   -1.18622604
 C                 -7.07820429    0.13392117   -0.78404532
 O                 -6.57323637   -0.61995703    0.04470824
 N                 -6.60417800    0.21353147   -2.03035657
 H                 -7.06553431    0.92121364   -2.58314097
 C                 -5.45921962   -0.56289914   -2.46010936
 H                 -5.46836296   -1.60479239   -2.13808265
 C                 -4.10826602    0.00271398   -2.04444017
 O                 -3.12809725   -0.73615721   -1.98705565
 N                 -4.10696126    1.26436878   -1.60799434
 H                 -5.04114260    1.64784666   -1.62911882
 C                 -2.93176411    1.94630948   -1.10430481
 H                 -2.16238587    1.84745198   -1.86996900
 C                 -2.49065702    1.36922382    0.23398115
 O                 -1.29760636    1.36717129    0.53001554
 N                 -3.38093312    0.73087525    0.99663249
 H                 -4.35506333    0.59457467    0.76721848
 C                 -2.91598772    0.11778770    2.22465694
 H                 -2.34798111    0.84249436    2.80691384
 C                 -1.97427914   -1.05160318    1.97216618
 O                 -1.05587849   -1.35659571    2.72880761
 N                 -2.17773282   -1.77391587    0.86831407
 H                 -2.98035182   -1.55202139    0.29708393
 C                 -1.31540696   -2.84797641    0.41903276
 H                 -0.83033026   -3.17131587    1.34009983
 C                 -0.11938344   -2.42196331   -0.42169685
 O                  1.00580360   -2.77372195   -0.07556046
 N                 -0.33935906   -1.53772791   -1.39650657
 H                 -1.27823387   -1.17714792   -1.48836760
 C                  0.76833240   -0.90031935   -2.07952311
 H                  1.36505887   -1.67228371   -2.56520393
 C                  1.75103999   -0.15304485   -1.18944992
 O                  2.91654311   -0.20934040   -1.57625444
 N                  1.39812314    0.39022777   -0.02174189
 H                  0.44585179    0.50947136    0.29207101
 C                  2.36395350    1.06155944    0.82515901
 H                  2.80523885    1.91231422    0.30676159
 C                  3.50031591    0.12398639    1.20705418
 O                  4.54540293    0.64810272    1.58398477
 N                  3.24543074   -1.18668307    1.19087923
 H                  2.36217121   -1.55964094    0.87452923
 C                  4.25671170   -2.12907965    1.62621943
 H                  4.52203879   -1.92782541    2.66401980
 C                  5.44588864   -2.15866857    0.67702324
 O                  6.55645743   -2.47719501    1.09596026
 N                  5.25916302   -1.70584149   -0.56501367
 H                  4.31993536   -1.36193880   -0.70457945
 C                  6.17463689   -1.46483438   -1.66153762
 H                  7.04690324   -2.09574476   -1.48471886
 C                  6.73649427   -0.05133618   -1.60394596
 O                  7.87308197    0.18355811   -2.00802463
 N                  6.07986013    0.99268453   -1.09231441
 H                  5.13365768    0.77179452   -0.81907671
 C                  6.49565454    2.38061957   -1.08052815
 H                  7.08831787    2.55575578   -1.97806855
 C                  7.20494039    2.73328591    0.21930480
 O                  7.87448037    3.76361394    0.24459882
 N                  7.18229033    1.82930514    1.20019178
 H                  6.62398166    1.00711658    1.01748246
 C                  8.07482666    1.81259026    2.34217083
 H                  8.36117358    2.82862703    2.61434925
 H                -11.85171990    0.38410791    2.28356215
 H                -10.96697189   -0.99025482    1.59028490
 H                 -7.63575343    2.12082250   -0.19403346
 H                 -3.19836251    2.97646047   -0.99199099
 H                 -5.51920335   -0.67903102   -3.52209594
 H                 -1.91888182   -3.64230314    0.03204015
 H                 -3.77248797   -0.14357775    2.81031521
 H                  0.32277464   -0.26263726   -2.81419312
 H                  1.88811826    1.44977538    1.70138350
 H                  3.92223535   -3.14416785    1.67742175
 H                  9.03396408    1.36879789    2.17482733
 H                  7.63513615    1.35090223    3.20148253
 H                  5.70918676   -1.61195453   -2.61369936
 H                  5.67848395    3.07008840   -1.12254187

 1 2 1.0 3 1.0 69 1.0 70 1.0
 2
 3 4 2.0 5 1.5
 4
 5 6 1.0 7 1.0
 6
 7 8 1.0 9 1.0 71 1.0
 8
 9 10 2.0 11 1.5
 10
 11 12 1.0 13 1.0
 12
 13 14 1.0 15 1.0 73 1.0
 14
 15 16 2.0 17 1.5
 16
 17 18 1.0 19 1.0
 18
 19 20 1.0 21 1.0 72 1.0
 20
 21 22 2.0 23 1.5
 22
 23 24 1.0 25 1.0
 24
 25 26 1.0 27 1.0 75 1.0
 26
 27 28 2.0 29 1.5
 28
 29 30 1.0 31 1.0
 30
 31 32 1.0 33 1.0 74 1.0
 32
 33 34 2.0 35 1.5
 34
 35 36 1.0 37 1.0
 36
 37 38 1.0 39 1.0 76 1.0
 38
 39 40 2.0 41 1.5
 40
 41 42 1.0 43 1.0
 42
 43 44 1.0 45 1.0 77 1.0
 44
 45 46 2.0 47 1.5
 46
 47 48 1.0 49 1.0
 48
 49 50 1.0 51 1.0 78 1.0
 50
 51 52 2.0 53 1.5
 52
 53 54 1.0 55 1.0
 54
 55 56 1.0 57 1.0 81 1.0
 56
 57 58 2.0 59 1.5
 58
 59 60 1.0 61 1.0
 60
 61 62 1.0 63 1.0 82 1.0
 62
 63 64 2.0 65 1.5
 64
 65 66 1.0 67 1.0
 66
 67 68 1.0 79 1.0 80 1.0
 68
 69
 70
 71
 72
 73
 74
 75
 76
 77
 78
 79
 80
 81
 82

