%mem

#P

AA

0 1
O    -1.9034148    2.6571692    0.0000000
C    -1.0374103    3.5030929   -0.0000000
H    -0.6213137    3.9092902    0.9370884
H    -0.6213137    3.9092902   -0.9370884
