%mem

#P

AA

0 1
N     1.5560529   -1.4566920    0.0000000
C     0.7031734   -0.6580078    0.0000000
C    -0.3606563    0.3376531    0.0000000
H    -0.2832351    0.9660109    0.8863119
H    -0.2832351    0.9660109   -0.8863119
H    -1.3320999   -0.1549750    0.0000000
