%mem

#P

AA

0 1
C    -3.1756103    0.6952522    0.0000000
O    -2.6364059   -0.3057482    0.0000000
