%mem

#P

AA

0 1
C     0.3148328    1.2266861    0.6805082
C     0.3148328    1.2266861   -0.6805082
H    -0.1079846    1.9318718    1.3770238
H    -0.1079846    1.9318718   -1.3770238
N     1.0588107    0.1407782   -1.0927028
N     1.0588107    0.1407782    1.0927028
C     1.5262459   -0.5722320    0.0000000
O     2.2110731   -1.5879933    0.0000000
C     1.2239323   -0.3367234   -2.4437990
H     1.9761521   -1.1232692   -2.4174936
H     0.2897182   -0.7534559   -2.8258389
H     1.5607238    0.4709540   -3.0943394
C     1.2239323   -0.3367234    2.4437990
H     0.2897182   -0.7534559    2.8258389
H     1.9761521   -1.1232692    2.4174936
H     1.5607238    0.4709540    3.0943394
N    -1.3138425   -1.7543417    0.0000000
C    -2.0796639   -0.8694686    0.0000000
C    -3.0582704    0.2092951    0.0000000
H    -2.9248656    0.8309805    0.8844331
H    -2.9248656    0.8309805   -0.8844331
H    -4.0681816   -0.2009036    0.0000000
