%mem

#P

AA

0 1
C     0.0303736    1.3653433    0.6791711 
C     0.0303736    1.3653433   -0.6791711 
H    -0.1649943    2.1629735    1.3758827 
H    -0.1649943    2.1629735   -1.3758827 
N     0.3288543    0.0807407   -1.0921060 
N     0.3288543    0.0807407    1.0921060 
C     0.5425928   -0.7449329    0.0000000 
O     0.8559120   -1.9312473    0.0000000 
C     0.4569972   -0.3883215   -2.4511992 
H     0.6448086   -1.4596868   -2.4029444 
H    -0.4626859   -0.2054431   -3.0085090 
H     1.2909067    0.1018197   -2.9562398 
C     0.4569972   -0.3883215    2.4511992 
H    -0.4626859   -0.2054431    3.0085090 
H     0.6448086   -1.4596868    2.4029444 
H     1.2909067    0.1018197    2.9562398 
O    -3.0470094    0.2040637    0.0000000 
C    -2.6000158   -0.8427353    0.0000000 