%mem

#P

AA

0 1
C     1.0478330    1.8580362    0.6792576 
C     1.0478330    1.8580362   -0.6792576 
H     1.6579406    2.4036797    1.3787362 
H     1.6579406    2.4036797   -1.3787362 
N     0.0533259    0.9922386   -1.0891845 
N     0.0533259    0.9922386    1.0891845 
C    -0.5605495    0.4181954    0.0000000 
O    -1.4585336   -0.4385049    0.0000000 
C    -0.2820593    0.6496555   -2.4526608 
H    -1.2696457    0.1912411   -2.4465780 
H    -0.3084584    1.5527710   -3.0619410 
H     0.4423505   -0.0539580   -2.8646589 
C    -0.2820593    0.6496555    2.4526608 
H    -0.3084584    1.5527710    3.0619410 
H    -1.2696457    0.1912411    2.4465780 
H     0.4423505   -0.0539580    2.8646589 
O    -1.4502929    4.0153931    0.0000000 
C    -2.1529570    3.1200592    0.0000000 
C     0.7939010   -3.1124495    0.0000000 
N     0.3349328   -2.5134691   -1.1552676 
H    -0.5235986   -1.9799143   -1.0920035 
H     0.4666286   -3.0826229   -1.9761113 
N     0.3349328   -2.5134691    1.1552676 
H     0.4666286   -3.0826229    1.9761113 
H    -0.5235986   -1.9799143    1.0920035 
O     1.5899333   -4.0380088    0.0000000 