%mem

#P

AA

0 1
C     1.4224390   -0.8916572    0.6794867 
C     1.4224390   -0.8916572   -0.6794867 
H     2.2171157   -0.6832504    1.3761175 
H     2.2171157   -0.6832504   -1.3761175 
N     0.1497650   -1.2345299   -1.0918494 
N     0.1497650   -1.2345299    1.0918494 
C    -0.6711015   -1.4582986    0.0000000 
O    -1.8516713   -1.7926779    0.0000000 
C    -0.3156301   -1.3809959   -2.4484040 
H    -1.3977120   -1.4960825   -2.4061310 
H    -0.0655874   -0.4960852   -3.0349196 
H     0.1199222   -2.2625019   -2.9230449 
C    -0.3156301   -1.3809959    2.4484040 
H    -0.0655874   -0.4960852    3.0349196 
H    -1.3977120   -1.4960825    2.4061310 
H     0.1199222   -2.2625019    2.9230449 
O    -0.8086327    1.6593686    0.0000000 
C    -0.2257695    2.2060678   -1.1601817 
H     0.8466112    1.9791428   -1.2093349 
H    -0.7290552    1.7605075   -2.0167035 
H    -0.3563962    3.2951888   -1.1962945 
C    -0.2257695    2.2060678    1.1601817 
H    -0.7290552    1.7605075    2.0167035 
H     0.8466112    1.9791428    1.2093349 
H    -0.3563962    3.2951888    1.1962945 