%mem

#P

AA

0 1
C    -1.2698753    1.4271654    0.6797803 
C    -1.2698753    1.4271654   -0.6797803 
H    -1.6826231    2.1338770    1.3797303 
H    -1.6826231    2.1338770   -1.3797303 
N    -0.5806622    0.3044146   -1.0885336 
N    -0.5806622    0.3044146    1.0885336 
C    -0.1379545   -0.4061918    0.0000000 
O     0.5285670   -1.4540054    0.0000000 
O    -3.0976320   -1.3630628    0.0000000 
C    -4.1303631   -0.7292226    0.0000000 
H    -4.1287114    0.3734469    0.0000000 
H    -5.1155174   -1.2259304    0.0000000 
C    -0.3452387   -0.1162628    2.4494723 
H    -1.2598850   -0.0075586    3.0321019 
H    -0.0602029   -1.1668918    2.4254006 
H     0.4557459    0.4673763    2.9052923 
C    -0.3452387   -0.1162628   -2.4494723 
H    -0.0602029   -1.1668918   -2.4254006 
H    -1.2598850   -0.0075586   -3.0321019 
H     0.4557459    0.4673763   -2.9052923 
C     3.6094756    0.1811033    0.0000000 
O     4.6920910    0.7466795    0.0000000 
N     2.9224258   -0.1306575    1.1545599 
N     2.9224258   -0.1306575   -1.1545599 
H     3.5044166   -0.1288582    1.9766975 
H     2.2059213   -0.8440128    1.0899072 
H     3.5044166   -0.1288582   -1.9766975 
H     2.2059213   -0.8440128   -1.0899072 